;; translated from ./ctigar/svd3.c.vmt
;; original benchmark available at: https://es-static.fbk.eu/people/griggio/ic3ia/index.html
;; author: Alberto Griggio <griggio@fbk.eu>
(set-logic HORN)
(declare-fun state (Bool Bool Bool Bool Bool Int Int Int Int Int) Bool)
(assert (forall ((|.s.2| Bool) (|.s.3| Bool) (|.s.0| Bool) (|.s.1| Bool) (|.s.0.next| Bool) (|.s.1.next| Bool) (|.s.2.next| Bool) (|.s.3.next| Bool) (|.s.4.next| Bool) (|main.i.next| Int) (|main.i| Int) (|main.j.next| Int) (|main.j| Int) (|main.k.next| Int) (|main.k| Int) (|main.l.next| Int) (|main.l| Int) (|n.next| Int) (|n| Int) (|.inputVar.0| Int) (|.s.4| Bool)) (=> (let ((.def_20 (not .s.4)))
(let ((.def_17 (not .s.3)))
(let ((.def_14 (not .s.2)))
(let ((.def_10 (not .s.1)))
(let ((.def_12 (and .def_10 .s.0)))
(let ((.def_15 (and .def_12 .def_14)))
(let ((.def_18 (and .def_15 .def_17)))
(let ((.def_21 (and .def_18 .def_20)))
.def_21)))))))) (state |.s.1| |.s.0| |.s.2| |.s.3| |.s.4| |n| |main.l| |main.k| |main.j| |main.i|))))
(assert (forall ((|.s.2| Bool) (|.s.3| Bool) (|.s.0| Bool) (|.s.1| Bool) (|.s.0.next| Bool) (|.s.1.next| Bool) (|.s.2.next| Bool) (|.s.3.next| Bool) (|.s.4.next| Bool) (|main.i.next| Int) (|main.i| Int) (|main.j.next| Int) (|main.j| Int) (|main.k.next| Int) (|main.k| Int) (|main.l.next| Int) (|main.l| Int) (|n.next| Int) (|n| Int) (|.inputVar.0| Int) (|.s.4| Bool)) (=> (and (state |.s.1| |.s.0| |.s.2| |.s.3| |.s.4| |n| |main.l| |main.k| |main.j| |main.i|) (let ((.def_62 (not .s.0)))
(let ((.def_10 (not .s.1)))
(let ((.def_96 (and .def_10 .def_62)))
(let ((.def_14 (not .s.2)))
(let ((.def_151 (and .def_14 .def_96)))
(let ((.def_17 (not .s.3)))
(let ((.def_270 (and .def_17 .def_151)))
(let ((.def_20 (not .s.4)))
(let ((.def_471 (and .def_20 .def_270)))
(let ((.def_472 (not .def_471)))
(let ((.def_51 (not .s.0.next)))
(let ((.def_49 (not .s.1.next)))
(let ((.def_52 (and .def_49 .def_51)))
(let ((.def_47 (not .s.2.next)))
(let ((.def_53 (and .def_47 .def_52)))
(let ((.def_45 (not .s.3.next)))
(let ((.def_54 (and .def_45 .def_53)))
(let ((.def_43 (not .s.4.next)))
(let ((.def_55 (and .def_43 .def_54)))
(let ((.def_41 (= main.i main.i.next)))
(let ((.def_56 (and .def_41 .def_55)))
(let ((.def_38 (= main.j main.j.next)))
(let ((.def_57 (and .def_38 .def_56)))
(let ((.def_35 (= main.k main.k.next)))
(let ((.def_58 (and .def_35 .def_57)))
(let ((.def_32 (= main.l main.l.next)))
(let ((.def_59 (and .def_32 .def_58)))
(let ((.def_29 (= n n.next)))
(let ((.def_60 (and .def_29 .def_59)))
(let ((.def_473 (or .def_60 .def_472)))
(let ((.def_86 (and .s.1.next .def_51)))
(let ((.def_139 (and .def_47 .def_86)))
(let ((.def_252 (and .def_45 .def_139)))
(let ((.def_464 (and .def_43 .def_252)))
(let ((.def_465 (and .def_41 .def_464)))
(let ((.def_466 (and .def_38 .def_465)))
(let ((.def_467 (and .def_35 .def_466)))
(let ((.def_468 (and .def_32 .def_467)))
(let ((.def_469 (and .def_29 .def_468)))
(let ((.def_451 (<= main.l 1)))
(let ((.def_12 (and .def_10 .s.0)))
(let ((.def_15 (and .def_12 .def_14)))
(let ((.def_18 (and .def_15 .def_17)))
(let ((.def_21 (and .def_18 .def_20)))
(let ((.def_462 (and .def_21 .def_451)))
(let ((.def_463 (not .def_462)))
(let ((.def_470 (or .def_463 .def_469)))
(let ((.def_474 (and .def_470 .def_473)))
(let ((.def_158 (and .s.1.next .s.0.next)))
(let ((.def_159 (and .def_47 .def_158)))
(let ((.def_240 (and .def_45 .def_159)))
(let ((.def_455 (and .def_43 .def_240)))
(let ((.def_456 (and .def_41 .def_455)))
(let ((.def_457 (and .def_38 .def_456)))
(let ((.def_458 (and .def_35 .def_457)))
(let ((.def_459 (and .def_32 .def_458)))
(let ((.def_460 (and .def_29 .def_459)))
(let ((.def_452 (not .def_451)))
(let ((.def_453 (and .def_21 .def_452)))
(let ((.def_454 (not .def_453)))
(let ((.def_461 (or .def_454 .def_460)))
(let ((.def_475 (and .def_461 .def_474)))
(let ((.def_63 (and .s.1 .def_62)))
(let ((.def_124 (and .def_14 .def_63)))
(let ((.def_234 (and .def_17 .def_124)))
(let ((.def_448 (and .def_20 .def_234)))
(let ((.def_449 (not .def_448)))
(let ((.def_450 (or .def_60 .def_449)))
(let ((.def_476 (and .def_450 .def_475)))
(let ((.def_441 (= n main.i.next)))
(let ((.def_68 (and .s.2.next .def_52)))
(let ((.def_69 (and .def_45 .def_68)))
(let ((.def_70 (and .def_43 .def_69)))
(let ((.def_442 (and .def_70 .def_441)))
(let ((.def_443 (and .def_38 .def_442)))
(let ((.def_444 (and .def_35 .def_443)))
(let ((.def_445 (and .def_32 .def_444)))
(let ((.def_446 (and .def_29 .def_445)))
(let ((.def_22 (and .s.1 .s.0)))
(let ((.def_112 (and .def_14 .def_22)))
(let ((.def_223 (and .def_17 .def_112)))
(let ((.def_439 (and .def_20 .def_223)))
(let ((.def_440 (not .def_439)))
(let ((.def_447 (or .def_440 .def_446)))
(let ((.def_477 (and .def_447 .def_476)))
(let ((.def_102 (and .def_49 .s.0.next)))
(let ((.def_103 (and .s.2.next .def_102)))
(let ((.def_215 (and .def_45 .def_103)))
(let ((.def_432 (and .def_43 .def_215)))
(let ((.def_433 (and .def_41 .def_432)))
(let ((.def_434 (and .def_38 .def_433)))
(let ((.def_435 (and .def_35 .def_434)))
(let ((.def_436 (and .def_32 .def_435)))
(let ((.def_437 (and .def_29 .def_436)))
(let ((.def_419 (<= 1 main.i)))
(let ((.def_97 (and .s.2 .def_96)))
(let ((.def_212 (and .def_17 .def_97)))
(let ((.def_418 (and .def_20 .def_212)))
(let ((.def_430 (and .def_418 .def_419)))
(let ((.def_431 (not .def_430)))
(let ((.def_438 (or .def_431 .def_437)))
(let ((.def_478 (and .def_438 .def_477)))
(let ((.def_192 (and .s.2.next .def_158)))
(let ((.def_204 (and .s.3.next .def_192)))
(let ((.def_423 (and .s.4.next .def_204)))
(let ((.def_424 (and .def_41 .def_423)))
(let ((.def_425 (and .def_38 .def_424)))
(let ((.def_426 (and .def_35 .def_425)))
(let ((.def_427 (and .def_32 .def_426)))
(let ((.def_428 (and .def_29 .def_427)))
(let ((.def_420 (not .def_419)))
(let ((.def_421 (and .def_418 .def_420)))
(let ((.def_422 (not .def_421)))
(let ((.def_429 (or .def_422 .def_428)))
(let ((.def_479 (and .def_429 .def_478)))
(let ((.def_404 (<= n main.i)))
(let ((.def_77 (and .def_12 .s.2)))
(let ((.def_201 (and .def_17 .def_77)))
(let ((.def_403 (and .def_20 .def_201)))
(let ((.def_415 (and .def_403 .def_404)))
(let ((.def_416 (not .def_415)))
(let ((.def_116 (and .s.3.next .def_68)))
(let ((.def_117 (and .s.4.next .def_116)))
(let ((.def_118 (and .def_41 .def_117)))
(let ((.def_119 (and .def_38 .def_118)))
(let ((.def_120 (and .def_35 .def_119)))
(let ((.def_121 (and .def_32 .def_120)))
(let ((.def_122 (and .def_29 .def_121)))
(let ((.def_417 (or .def_122 .def_416)))
(let ((.def_480 (and .def_417 .def_479)))
(let ((.def_87 (and .s.2.next .def_86)))
(let ((.def_283 (and .def_45 .def_87)))
(let ((.def_408 (and .def_43 .def_283)))
(let ((.def_409 (and .def_41 .def_408)))
(let ((.def_410 (and .def_38 .def_409)))
(let ((.def_411 (and .def_35 .def_410)))
(let ((.def_412 (and .def_32 .def_411)))
(let ((.def_413 (and .def_29 .def_412)))
(let ((.def_405 (not .def_404)))
(let ((.def_406 (and .def_403 .def_405)))
(let ((.def_407 (not .def_406)))
(let ((.def_414 (or .def_407 .def_413)))
(let ((.def_481 (and .def_414 .def_480)))
(let ((.def_193 (and .def_45 .def_192)))
(let ((.def_396 (and .def_43 .def_193)))
(let ((.def_397 (and .def_41 .def_396)))
(let ((.def_398 (and .def_38 .def_397)))
(let ((.def_399 (and .def_35 .def_398)))
(let ((.def_400 (and .def_32 .def_399)))
(let ((.def_401 (and .def_29 .def_400)))
(let ((.def_389 (= .inputVar.0 0)))
(let ((.def_64 (and .s.2 .def_63)))
(let ((.def_189 (and .def_17 .def_64)))
(let ((.def_386 (and .def_20 .def_189)))
(let ((.def_394 (and .def_386 .def_389)))
(let ((.def_395 (not .def_394)))
(let ((.def_402 (or .def_395 .def_401)))
(let ((.def_482 (and .def_402 .def_481)))
(let ((.def_390 (not .def_389)))
(let ((.def_391 (and .def_386 .def_390)))
(let ((.def_392 (not .def_391)))
(let ((.def_194 (and .s.4.next .def_193)))
(let ((.def_195 (and .def_41 .def_194)))
(let ((.def_196 (and .def_38 .def_195)))
(let ((.def_197 (and .def_35 .def_196)))
(let ((.def_198 (and .def_32 .def_197)))
(let ((.def_199 (and .def_29 .def_198)))
(let ((.def_393 (or .def_199 .def_392)))
(let ((.def_483 (and .def_393 .def_482)))
(let ((.def_128 (and .s.3.next .def_53)))
(let ((.def_319 (and .def_43 .def_128)))
(let ((.def_182 (= main.l main.j.next)))
(let ((.def_380 (and .def_182 .def_319)))
(let ((.def_381 (and .def_41 .def_380)))
(let ((.def_382 (and .def_35 .def_381)))
(let ((.def_383 (and .def_32 .def_382)))
(let ((.def_384 (and .def_29 .def_383)))
(let ((.def_23 (and .s.2 .def_22)))
(let ((.def_179 (and .def_17 .def_23)))
(let ((.def_378 (and .def_20 .def_179)))
(let ((.def_379 (not .def_378)))
(let ((.def_385 (or .def_379 .def_384)))
(let ((.def_484 (and .def_385 .def_483)))
(let ((.def_170 (and .def_47 .def_102)))
(let ((.def_171 (and .s.3.next .def_170)))
(let ((.def_371 (and .def_43 .def_171)))
(let ((.def_372 (and .def_41 .def_371)))
(let ((.def_373 (and .def_38 .def_372)))
(let ((.def_374 (and .def_35 .def_373)))
(let ((.def_375 (and .def_32 .def_374)))
(let ((.def_376 (and .def_29 .def_375)))
(let ((.def_152 (and .s.3 .def_151)))
(let ((.def_359 (and .def_20 .def_152)))
(let ((.def_154 (<= main.j n)))
(let ((.def_369 (and .def_154 .def_359)))
(let ((.def_370 (not .def_369)))
(let ((.def_377 (or .def_370 .def_376)))
(let ((.def_485 (and .def_377 .def_484)))
(let ((.def_88 (and .s.3.next .def_87)))
(let ((.def_362 (and .def_43 .def_88)))
(let ((.def_363 (and .def_41 .def_362)))
(let ((.def_364 (and .def_38 .def_363)))
(let ((.def_365 (and .def_35 .def_364)))
(let ((.def_366 (and .def_32 .def_365)))
(let ((.def_367 (and .def_29 .def_366)))
(let ((.def_155 (not .def_154)))
(let ((.def_360 (and .def_155 .def_359)))
(let ((.def_361 (not .def_360)))
(let ((.def_368 (or .def_361 .def_367)))
(let ((.def_486 (and .def_368 .def_485)))
(let ((.def_140 (and .s.3.next .def_139)))
(let ((.def_352 (and .def_43 .def_140)))
(let ((.def_353 (and .def_41 .def_352)))
(let ((.def_354 (and .def_38 .def_353)))
(let ((.def_355 (and .def_35 .def_354)))
(let ((.def_356 (and .def_32 .def_355)))
(let ((.def_357 (and .def_29 .def_356)))
(let ((.def_345 (<= 1 main.j)))
(let ((.def_136 (and .def_15 .s.3)))
(let ((.def_344 (and .def_20 .def_136)))
(let ((.def_350 (and .def_344 .def_345)))
(let ((.def_351 (not .def_350)))
(let ((.def_358 (or .def_351 .def_357)))
(let ((.def_487 (and .def_358 .def_486)))
(let ((.def_346 (not .def_345)))
(let ((.def_347 (and .def_344 .def_346)))
(let ((.def_348 (not .def_347)))
(let ((.def_104 (and .s.3.next .def_103)))
(let ((.def_310 (and .def_43 .def_104)))
(let ((.def_311 (and .def_41 .def_310)))
(let ((.def_312 (and .def_38 .def_311)))
(let ((.def_313 (and .def_35 .def_312)))
(let ((.def_314 (and .def_32 .def_313)))
(let ((.def_315 (and .def_29 .def_314)))
(let ((.def_349 (or .def_315 .def_348)))
(let ((.def_488 (and .def_349 .def_487)))
(let ((.def_160 (and .s.3.next .def_159)))
(let ((.def_337 (and .def_43 .def_160)))
(let ((.def_338 (and .def_41 .def_337)))
(let ((.def_339 (and .def_38 .def_338)))
(let ((.def_340 (and .def_35 .def_339)))
(let ((.def_341 (and .def_32 .def_340)))
(let ((.def_342 (and .def_29 .def_341)))
(let ((.def_125 (and .s.3 .def_124)))
(let ((.def_335 (and .def_20 .def_125)))
(let ((.def_336 (not .def_335)))
(let ((.def_343 (or .def_336 .def_342)))
(let ((.def_489 (and .def_343 .def_488)))
(let ((.def_328 (and .def_43 .def_116)))
(let ((.def_142 (* (- 1) main.j.next)))
(let ((.def_143 (+ main.j .def_142)))
(let ((.def_144 (= .def_143 (- 1))))
(let ((.def_329 (and .def_144 .def_328)))
(let ((.def_330 (and .def_41 .def_329)))
(let ((.def_331 (and .def_35 .def_330)))
(let ((.def_332 (and .def_32 .def_331)))
(let ((.def_333 (and .def_29 .def_332)))
(let ((.def_113 (and .s.3 .def_112)))
(let ((.def_326 (and .def_20 .def_113)))
(let ((.def_327 (not .def_326)))
(let ((.def_334 (or .def_327 .def_333)))
(let ((.def_490 (and .def_334 .def_489)))
(let ((.def_320 (and .def_41 .def_319)))
(let ((.def_321 (and .def_38 .def_320)))
(let ((.def_322 (and .def_35 .def_321)))
(let ((.def_323 (and .def_32 .def_322)))
(let ((.def_324 (and .def_29 .def_323)))
(let ((.def_98 (and .s.3 .def_97)))
(let ((.def_317 (and .def_20 .def_98)))
(let ((.def_318 (not .def_317)))
(let ((.def_325 (or .def_318 .def_324)))
(let ((.def_491 (and .def_325 .def_490)))
(let ((.def_78 (and .s.3 .def_77)))
(let ((.def_308 (and .def_20 .def_78)))
(let ((.def_309 (not .def_308)))
(let ((.def_316 (or .def_309 .def_315)))
(let ((.def_492 (and .def_316 .def_491)))
(let ((.def_205 (and .def_43 .def_204)))
(let ((.def_302 (and .def_182 .def_205)))
(let ((.def_303 (and .def_41 .def_302)))
(let ((.def_304 (and .def_35 .def_303)))
(let ((.def_305 (and .def_32 .def_304)))
(let ((.def_306 (and .def_29 .def_305)))
(let ((.def_65 (and .s.3 .def_64)))
(let ((.def_300 (and .def_20 .def_65)))
(let ((.def_301 (not .def_300)))
(let ((.def_307 (or .def_301 .def_306)))
(let ((.def_493 (and .def_307 .def_492)))
(let ((.def_293 (and .s.4.next .def_54)))
(let ((.def_294 (and .def_41 .def_293)))
(let ((.def_295 (and .def_38 .def_294)))
(let ((.def_296 (and .def_35 .def_295)))
(let ((.def_297 (and .def_32 .def_296)))
(let ((.def_298 (and .def_29 .def_297)))
(let ((.def_24 (and .s.3 .def_23)))
(let ((.def_280 (and .def_20 .def_24)))
(let ((.def_291 (and .def_154 .def_280)))
(let ((.def_292 (not .def_291)))
(let ((.def_299 (or .def_292 .def_298)))
(let ((.def_494 (and .def_299 .def_493)))
(let ((.def_284 (and .s.4.next .def_283)))
(let ((.def_285 (and .def_41 .def_284)))
(let ((.def_286 (and .def_38 .def_285)))
(let ((.def_287 (and .def_35 .def_286)))
(let ((.def_288 (and .def_32 .def_287)))
(let ((.def_289 (and .def_29 .def_288)))
(let ((.def_281 (and .def_155 .def_280)))
(let ((.def_282 (not .def_281)))
(let ((.def_290 (or .def_282 .def_289)))
(let ((.def_495 (and .def_290 .def_494)))
(let ((.def_273 (= main.l main.k.next)))
(let ((.def_226 (and .def_45 .def_170)))
(let ((.def_227 (and .s.4.next .def_226)))
(let ((.def_274 (and .def_227 .def_273)))
(let ((.def_275 (and .def_41 .def_274)))
(let ((.def_276 (and .def_38 .def_275)))
(let ((.def_277 (and .def_32 .def_276)))
(let ((.def_278 (and .def_29 .def_277)))
(let ((.def_271 (and .s.4 .def_270)))
(let ((.def_272 (not .def_271)))
(let ((.def_279 (or .def_272 .def_278)))
(let ((.def_496 (and .def_279 .def_495)))
(let ((.def_263 (and .s.4.next .def_69)))
(let ((.def_264 (and .def_41 .def_263)))
(let ((.def_265 (and .def_38 .def_264)))
(let ((.def_266 (and .def_35 .def_265)))
(let ((.def_267 (and .def_32 .def_266)))
(let ((.def_268 (and .def_29 .def_267)))
(let ((.def_249 (<= main.k n)))
(let ((.def_260 (not .def_249)))
(let ((.def_248 (and .def_18 .s.4)))
(let ((.def_261 (and .def_248 .def_260)))
(let ((.def_262 (not .def_261)))
(let ((.def_269 (or .def_262 .def_268)))
(let ((.def_497 (and .def_269 .def_496)))
(let ((.def_253 (and .s.4.next .def_252)))
(let ((.def_254 (and .def_41 .def_253)))
(let ((.def_255 (and .def_38 .def_254)))
(let ((.def_256 (and .def_35 .def_255)))
(let ((.def_257 (and .def_32 .def_256)))
(let ((.def_258 (and .def_29 .def_257)))
(let ((.def_250 (and .def_248 .def_249)))
(let ((.def_251 (not .def_250)))
(let ((.def_259 (or .def_251 .def_258)))
(let ((.def_498 (and .def_259 .def_497)))
(let ((.def_241 (and .s.4.next .def_240)))
(let ((.def_237 (* (- 1) main.k.next)))
(let ((.def_238 (+ main.k .def_237)))
(let ((.def_239 (= .def_238 (- 1))))
(let ((.def_242 (and .def_239 .def_241)))
(let ((.def_243 (and .def_41 .def_242)))
(let ((.def_244 (and .def_38 .def_243)))
(let ((.def_245 (and .def_32 .def_244)))
(let ((.def_246 (and .def_29 .def_245)))
(let ((.def_235 (and .s.4 .def_234)))
(let ((.def_236 (not .def_235)))
(let ((.def_247 (or .def_236 .def_246)))
(let ((.def_499 (and .def_247 .def_498)))
(let ((.def_228 (and .def_41 .def_227)))
(let ((.def_229 (and .def_38 .def_228)))
(let ((.def_230 (and .def_35 .def_229)))
(let ((.def_231 (and .def_32 .def_230)))
(let ((.def_232 (and .def_29 .def_231)))
(let ((.def_224 (and .s.4 .def_223)))
(let ((.def_225 (not .def_224)))
(let ((.def_233 (or .def_225 .def_232)))
(let ((.def_500 (and .def_233 .def_499)))
(let ((.def_216 (and .s.4.next .def_215)))
(let ((.def_217 (and .def_144 .def_216)))
(let ((.def_218 (and .def_41 .def_217)))
(let ((.def_219 (and .def_35 .def_218)))
(let ((.def_220 (and .def_32 .def_219)))
(let ((.def_221 (and .def_29 .def_220)))
(let ((.def_213 (and .s.4 .def_212)))
(let ((.def_214 (not .def_213)))
(let ((.def_222 (or .def_214 .def_221)))
(let ((.def_501 (and .def_222 .def_500)))
(let ((.def_206 (and .def_41 .def_205)))
(let ((.def_207 (and .def_38 .def_206)))
(let ((.def_208 (and .def_35 .def_207)))
(let ((.def_209 (and .def_32 .def_208)))
(let ((.def_210 (and .def_29 .def_209)))
(let ((.def_202 (and .s.4 .def_201)))
(let ((.def_203 (not .def_202)))
(let ((.def_211 (or .def_203 .def_210)))
(let ((.def_502 (and .def_211 .def_501)))
(let ((.def_190 (and .s.4 .def_189)))
(let ((.def_191 (not .def_190)))
(let ((.def_200 (or .def_191 .def_199)))
(let ((.def_503 (and .def_200 .def_502)))
(let ((.def_129 (and .s.4.next .def_128)))
(let ((.def_183 (and .def_129 .def_182)))
(let ((.def_184 (and .def_41 .def_183)))
(let ((.def_185 (and .def_35 .def_184)))
(let ((.def_186 (and .def_32 .def_185)))
(let ((.def_187 (and .def_29 .def_186)))
(let ((.def_180 (and .s.4 .def_179)))
(let ((.def_181 (not .def_180)))
(let ((.def_188 (or .def_181 .def_187)))
(let ((.def_504 (and .def_188 .def_503)))
(let ((.def_172 (and .s.4.next .def_171)))
(let ((.def_173 (and .def_41 .def_172)))
(let ((.def_174 (and .def_38 .def_173)))
(let ((.def_175 (and .def_35 .def_174)))
(let ((.def_176 (and .def_32 .def_175)))
(let ((.def_177 (and .def_29 .def_176)))
(let ((.def_153 (and .s.4 .def_152)))
(let ((.def_168 (and .def_153 .def_154)))
(let ((.def_169 (not .def_168)))
(let ((.def_178 (or .def_169 .def_177)))
(let ((.def_505 (and .def_178 .def_504)))
(let ((.def_161 (and .s.4.next .def_160)))
(let ((.def_162 (and .def_41 .def_161)))
(let ((.def_163 (and .def_38 .def_162)))
(let ((.def_164 (and .def_35 .def_163)))
(let ((.def_165 (and .def_32 .def_164)))
(let ((.def_166 (and .def_29 .def_165)))
(let ((.def_156 (and .def_153 .def_155)))
(let ((.def_157 (not .def_156)))
(let ((.def_167 (or .def_157 .def_166)))
(let ((.def_506 (and .def_167 .def_505)))
(let ((.def_141 (and .s.4.next .def_140)))
(let ((.def_145 (and .def_141 .def_144)))
(let ((.def_146 (and .def_41 .def_145)))
(let ((.def_147 (and .def_35 .def_146)))
(let ((.def_148 (and .def_32 .def_147)))
(let ((.def_149 (and .def_29 .def_148)))
(let ((.def_137 (and .s.4 .def_136)))
(let ((.def_138 (not .def_137)))
(let ((.def_150 (or .def_138 .def_149)))
(let ((.def_507 (and .def_150 .def_506)))
(let ((.def_130 (and .def_41 .def_129)))
(let ((.def_131 (and .def_38 .def_130)))
(let ((.def_132 (and .def_35 .def_131)))
(let ((.def_133 (and .def_32 .def_132)))
(let ((.def_134 (and .def_29 .def_133)))
(let ((.def_126 (and .s.4 .def_125)))
(let ((.def_127 (not .def_126)))
(let ((.def_135 (or .def_127 .def_134)))
(let ((.def_508 (and .def_135 .def_507)))
(let ((.def_114 (and .s.4 .def_113)))
(let ((.def_115 (not .def_114)))
(let ((.def_123 (or .def_115 .def_122)))
(let ((.def_509 (and .def_123 .def_508)))
(let ((.def_105 (and .s.4.next .def_104)))
(let ((.def_101 (= main.l.next main.i)))
(let ((.def_106 (and .def_101 .def_105)))
(let ((.def_107 (and .def_41 .def_106)))
(let ((.def_108 (and .def_38 .def_107)))
(let ((.def_109 (and .def_35 .def_108)))
(let ((.def_110 (and .def_29 .def_109)))
(let ((.def_99 (and .s.4 .def_98)))
(let ((.def_100 (not .def_99)))
(let ((.def_111 (or .def_100 .def_110)))
(let ((.def_510 (and .def_111 .def_509)))
(let ((.def_89 (and .s.4.next .def_88)))
(let ((.def_83 (* (- 1) main.i.next)))
(let ((.def_84 (+ main.i .def_83)))
(let ((.def_85 (= .def_84 1)))
(let ((.def_90 (and .def_85 .def_89)))
(let ((.def_91 (and .def_38 .def_90)))
(let ((.def_92 (and .def_35 .def_91)))
(let ((.def_93 (and .def_32 .def_92)))
(let ((.def_94 (and .def_29 .def_93)))
(let ((.def_79 (and .s.4 .def_78)))
(let ((.def_80 (not .def_79)))
(let ((.def_95 (or .def_80 .def_94)))
(let ((.def_511 (and .def_95 .def_510)))
(let ((.def_71 (and .def_41 .def_70)))
(let ((.def_72 (and .def_38 .def_71)))
(let ((.def_73 (and .def_35 .def_72)))
(let ((.def_74 (and .def_32 .def_73)))
(let ((.def_75 (and .def_29 .def_74)))
(let ((.def_66 (and .s.4 .def_65)))
(let ((.def_67 (not .def_66)))
(let ((.def_76 (or .def_67 .def_75)))
(let ((.def_512 (and .def_76 .def_511)))
(let ((.def_25 (and .s.4 .def_24)))
(let ((.def_26 (not .def_25)))
(let ((.def_61 (or .def_26 .def_60)))
(let ((.def_513 (and .def_61 .def_512)))
.def_513)))))))))))))))))))))))))))))))))))))))))))))))))))))))))))))))))))))))))))))))))))))))))))))))))))))))))))))))))))))))))))))))))))))))))))))))))))))))))))))))))))))))))))))))))))))))))))))))))))))))))))))))))))))))))))))))))))))))))))))))))))))))))))))))))))))))))))))))))))))))))))))))))))))))))))))))))))))))))))))))))))))))))))))))))))))))))))))))))))))))))))))))))))))))))))))))))))))))))))))))))))))))))))))))))))))))))))))))))))))))))))))))))))))))))))))))))))))))))))))))))) (state |.s.1.next| |.s.0.next| |.s.2.next| |.s.3.next| |.s.4.next| |n.next| |main.l.next| |main.k.next| |main.j.next| |main.i.next|))))
(assert (forall ((|.s.2| Bool) (|.s.3| Bool) (|.s.0| Bool) (|.s.1| Bool) (|.s.0.next| Bool) (|.s.1.next| Bool) (|.s.2.next| Bool) (|.s.3.next| Bool) (|.s.4.next| Bool) (|main.i.next| Int) (|main.i| Int) (|main.j.next| Int) (|main.j| Int) (|main.k.next| Int) (|main.k| Int) (|main.l.next| Int) (|main.l| Int) (|n.next| Int) (|n| Int) (|.inputVar.0| Int) (|.s.4| Bool)) (=> (state |.s.1| |.s.0| |.s.2| |.s.3| |.s.4| |n| |main.l| |main.k| |main.j| |main.i|) (let ((.def_10 (not .s.1)))
(let ((.def_12 (and .def_10 .s.0)))
(let ((.def_77 (and .def_12 .s.2)))
(let ((.def_78 (and .s.3 .def_77)))
(let ((.def_20 (not .s.4)))
(let ((.def_308 (and .def_20 .def_78)))
(let ((.def_309 (not .def_308)))
.def_309))))))))))
(check-sat)
